# Solution for model obj
# Objective value = 210800
z 210800
x#1#10 0
x#1#9 0
x#1#8 0
x#1#7 0
x#1#6 1
x#1#5 0
x#1#4 0
x#1#3 0
x#1#2 1
x#2#1 0
x#2#10 0
x#2#9 0
x#2#8 0
x#2#7 1
x#2#6 0
x#2#5 0
x#2#4 0
x#2#3 1
x#3#1 0
x#3#10 0
x#3#9 0
x#3#8 1
x#3#7 0
x#3#6 0
x#3#5 1
x#3#4 0
x#3#2 0
x#4#1 1
x#4#10 0
x#4#9 0
x#4#8 0
x#4#7 0
x#4#6 0
x#4#5 1
x#4#3 0
x#4#2 0
x#5#1 0
x#5#10 0
x#5#9 0
x#5#8 0
x#5#7 1
x#5#6 1
x#5#4 0
x#5#3 0
x#5#2 0
x#6#1 0
x#6#10 0
x#6#9 1
x#6#8 0
x#6#7 0
x#6#5 0
x#6#4 1
x#6#3 0
x#6#2 0
x#7#1 0
x#7#10 0
x#7#9 1
x#7#8 1
x#7#6 0
x#7#5 0
x#7#4 0
x#7#3 0
x#7#2 0
x#8#1 1
x#8#10 1
x#8#9 0
x#8#7 0
x#8#6 0
x#8#5 0
x#8#4 0
x#8#3 0
x#8#2 0
x#9#1 0
x#9#10 1
x#9#8 0
x#9#7 0
x#9#6 0
x#9#5 0
x#9#4 0
x#9#3 1
x#9#2 0
x#10#1 0
x#10#9 0
x#10#8 0
x#10#7 0
x#10#6 0
x#10#5 0
x#10#4 1
x#10#3 0
x#10#2 1
f#1#2#10 0
f#1#2#9 0
f#1#2#8 0
f#1#2#7 61000
f#1#2#6 0
f#1#2#5 0
f#1#2#4 0
f#1#2#3 73400
f#1#10#2 0
f#1#9#2 0
f#1#8#2 0
f#1#7#2 0
f#1#6#2 0
f#1#5#2 0
f#1#4#2 0
f#1#3#2 0
f#1#1#2 158400
f#1#3#10 0
f#1#3#9 0
f#1#3#8 21000
f#1#3#7 0
f#1#3#6 0
f#1#3#5 11200
f#1#3#4 0
f#1#10#3 0
f#1#9#3 1800
f#1#8#3 0
f#1#7#3 0
f#1#6#3 0
f#1#5#3 0
f#1#4#3 0
f#1#1#3 0
f#1#4#10 0
f#1#4#9 0
f#1#4#8 0
f#1#4#7 0
f#1#4#6 0
f#1#4#5 9800
f#1#10#4 0
f#1#9#4 0
f#1#8#4 0
f#1#7#4 0
f#1#6#4 32800
f#1#5#4 0
f#1#1#4 0
f#1#5#10 0
f#1#5#9 0
f#1#5#8 0
f#1#5#7 0
f#1#5#6 0
f#1#10#5 0
f#1#9#5 0
f#1#8#5 0
f#1#7#5 0
f#1#6#5 0
f#1#1#5 0
f#1#6#10 0
f#1#6#9 21800
f#1#6#8 0
f#1#6#7 0
f#1#10#6 0
f#1#9#6 0
f#1#8#6 0
f#1#7#6 0
f#1#1#6 95600
f#1#7#10 0
f#1#7#9 0
f#1#7#8 0
f#1#10#7 0
f#1#9#7 0
f#1#8#7 0
f#1#1#7 0
f#1#8#10 0
f#1#8#9 0
f#1#10#8 0
f#1#9#8 0
f#1#1#8 0
f#1#9#10 0
f#1#10#9 0
f#1#1#9 0
f#1#1#10 0
f#2#3#10 0
f#2#3#9 0
f#2#3#8 0
f#2#3#7 0
f#2#3#6 0
f#2#3#5 28400
f#2#3#4 0
f#2#3#1 0
f#2#10#3 0
f#2#9#3 0
f#2#8#3 0
f#2#7#3 0
f#2#6#3 0
f#2#5#3 0
f#2#4#3 0
f#2#2#3 28400
f#2#1#3 0
f#2#4#10 0
f#2#4#9 0
f#2#4#8 0
f#2#4#7 0
f#2#4#6 0
f#2#4#5 0
f#2#4#1 0
f#2#10#4 0
f#2#9#4 0
f#2#8#4 0
f#2#7#4 0
f#2#6#4 0
f#2#5#4 0
f#2#2#4 0
f#2#1#4 0
f#2#5#10 0
f#2#5#9 0
f#2#5#8 0
f#2#5#7 0
f#2#5#6 7400
f#2#5#1 0
f#2#10#5 0
f#2#9#5 0
f#2#8#5 0
f#2#7#5 0
f#2#6#5 0
f#2#2#5 0
f#2#1#5 0
f#2#6#10 0
f#2#6#9 0
f#2#6#8 0
f#2#6#7 0
f#2#6#1 0
f#2#10#6 0
f#2#9#6 0
f#2#8#6 0
f#2#7#6 0
f#2#2#6 0
f#2#1#6 10600
f#2#7#10 0
f#2#7#9 0
f#2#7#8 33600
f#2#7#1 0
f#2#10#7 0
f#2#9#7 0
f#2#8#7 0
f#2#2#7 72600
f#2#1#7 0
f#2#8#10 0
f#2#8#9 0
f#2#8#1 10600
f#2#10#8 0
f#2#9#8 0
f#2#2#8 0
f#2#1#8 0
f#2#9#10 0
f#2#9#1 0
f#2#10#9 0
f#2#2#9 0
f#2#1#9 0
f#2#10#1 0
f#2#2#10 0
f#2#1#10 0
f#2#2#1 0
f#3#2#10 0
f#3#2#9 0
f#3#2#8 0
f#3#2#7 0
f#3#2#6 0
f#3#2#5 0
f#3#2#4 0
f#3#2#1 0
f#3#10#2 0
f#3#9#2 0
f#3#8#2 0
f#3#7#2 0
f#3#6#2 0
f#3#5#2 0
f#3#4#2 0
f#3#3#2 0
f#3#1#2 0
f#3#4#10 0
f#3#4#9 0
f#3#4#8 0
f#3#4#7 0
f#3#4#6 0
f#3#4#5 0
f#3#4#1 0
f#3#10#4 20000
f#3#9#4 0
f#3#8#4 0
f#3#7#4 0
f#3#6#4 0
f#3#5#4 0
f#3#3#4 0
f#3#1#4 0
f#3#5#10 0
f#3#5#9 0
f#3#5#8 0
f#3#5#7 42000
f#3#5#6 20000
f#3#5#1 0
f#3#10#5 0
f#3#9#5 0
f#3#8#5 0
f#3#7#5 0
f#3#6#5 0
f#3#3#5 106000
f#3#1#5 0
f#3#6#10 0
f#3#6#9 20000
f#3#6#8 0
f#3#6#7 0
f#3#6#1 0
f#3#10#6 0
f#3#9#6 0
f#3#8#6 0
f#3#7#6 0
f#3#3#6 0
f#3#1#6 0
f#3#7#10 0
f#3#7#9 0
f#3#7#8 0
f#3#7#1 0
f#3#10#7 0
f#3#9#7 0
f#3#8#7 0
f#3#3#7 0
f#3#1#7 0
f#3#8#10 20000
f#3#8#9 0
f#3#8#1 16000
f#3#10#8 0
f#3#9#8 0
f#3#3#8 58000
f#3#1#8 0
f#3#9#10 0
f#3#9#1 0
f#3#10#9 0
f#3#3#9 0
f#3#1#9 0
f#3#10#1 0
f#3#3#10 0
f#3#1#10 0
f#3#3#1 0
f#4#2#10 0
f#4#2#9 0
f#4#2#8 0
f#4#2#7 0
f#4#2#6 0
f#4#2#5 0
f#4#2#3 18000
f#4#2#1 0
f#4#10#2 0
f#4#9#2 0
f#4#8#2 0
f#4#7#2 0
f#4#6#2 0
f#4#5#2 0
f#4#4#2 0
f#4#3#2 0
f#4#1#2 38000
f#4#3#10 0
f#4#3#9 0
f#4#3#8 0
f#4#3#7 0
f#4#3#6 0
f#4#3#5 0
f#4#3#1 0
f#4#10#3 0
f#4#9#3 0
f#4#8#3 0
f#4#7#3 0
f#4#6#3 0
f#4#5#3 0
f#4#4#3 0
f#4#1#3 0
f#4#5#10 0
f#4#5#9 0
f#4#5#8 0
f#4#5#7 85000
f#4#5#6 0
f#4#5#1 0
f#4#10#5 0
f#4#9#5 0
f#4#8#5 0
f#4#7#5 0
f#4#6#5 0
f#4#4#5 125000
f#4#1#5 0
f#4#6#10 0
f#4#6#9 0
f#4#6#8 0
f#4#6#7 0
f#4#6#1 0
f#4#10#6 0
f#4#9#6 0
f#4#8#6 0
f#4#7#6 0
f#4#4#6 0
f#4#1#6 57000
f#4#7#10 0
f#4#7#9 0
f#4#7#8 42000
f#4#7#1 0
f#4#10#7 0
f#4#9#7 0
f#4#8#7 0
f#4#4#7 0
f#4#1#7 0
f#4#8#10 0
f#4#8#9 0
f#4#8#1 0
f#4#10#8 0
f#4#9#8 0
f#4#4#8 0
f#4#1#8 0
f#4#9#10 0
f#4#9#1 0
f#4#10#9 0
f#4#4#9 0
f#4#1#9 0
f#4#10#1 0
f#4#4#10 0
f#4#1#10 0
f#4#4#1 137000
f#5#2#10 0
f#5#2#9 0
f#5#2#8 0
f#5#2#7 0
f#5#2#6 0
f#5#2#4 0
f#5#2#3 0
f#5#2#1 0
f#5#10#2 0
f#5#9#2 0
f#5#8#2 0
f#5#7#2 0
f#5#6#2 0
f#5#5#2 0
f#5#4#2 0
f#5#3#2 0
f#5#1#2 0
f#5#3#10 0
f#5#3#9 0
f#5#3#8 0
f#5#3#7 0
f#5#3#6 0
f#5#3#4 0
f#5#3#1 0
f#5#10#3 0
f#5#9#3 0
f#5#8#3 0
f#5#7#3 0
f#5#6#3 0
f#5#5#3 0
f#5#4#3 0
f#5#1#3 0
f#5#4#10 0
f#5#4#9 0
f#5#4#8 0
f#5#4#7 0
f#5#4#6 0
f#5#4#1 0
f#5#10#4 0
f#5#9#4 0
f#5#8#4 0
f#5#7#4 0
f#5#6#4 40000
f#5#5#4 0
f#5#1#4 0
f#5#6#10 0
f#5#6#9 44000
f#5#6#8 0
f#5#6#7 0
f#5#6#1 0
f#5#10#6 0
f#5#9#6 0
f#5#8#6 0
f#5#7#6 0
f#5#5#6 167000
f#5#1#6 0
f#5#7#10 0
f#5#7#9 0
f#5#7#8 0
f#5#7#1 0
f#5#10#7 0
f#5#9#7 0
f#5#8#7 0
f#5#5#7 60000
f#5#1#7 0
f#5#8#10 0
f#5#8#9 0
f#5#8#1 0
f#5#10#8 0
f#5#9#8 0
f#5#5#8 0
f#5#1#8 0
f#5#9#10 0
f#5#9#1 0
f#5#10#9 0
f#5#5#9 0
f#5#1#9 0
f#5#10#1 0
f#5#5#10 0
f#5#1#10 0
f#5#5#1 0
f#6#2#10 0
f#6#2#9 0
f#6#2#8 0
f#6#2#7 0
f#6#2#5 0
f#6#2#4 0
f#6#2#3 0
f#6#2#1 0
f#6#10#2 18000
f#6#9#2 0
f#6#8#2 0
f#6#7#2 0
f#6#6#2 0
f#6#5#2 0
f#6#4#2 0
f#6#3#2 0
f#6#1#2 0
f#6#3#10 0
f#6#3#9 0
f#6#3#8 41000
f#6#3#7 0
f#6#3#5 0
f#6#3#4 0
f#6#3#1 0
f#6#10#3 0
f#6#9#3 41000
f#6#8#3 0
f#6#7#3 0
f#6#6#3 0
f#6#5#3 0
f#6#4#3 0
f#6#1#3 0
f#6#4#10 0
f#6#4#9 0
f#6#4#8 0
f#6#4#7 0
f#6#4#5 39000
f#6#4#1 60000
f#6#10#4 0
f#6#9#4 0
f#6#8#4 0
f#6#7#4 0
f#6#6#4 136000
f#6#5#4 0
f#6#1#4 0
f#6#5#10 0
f#6#5#9 0
f#6#5#8 0
f#6#5#7 21000
f#6#5#1 0
f#6#10#5 0
f#6#9#5 0
f#6#8#5 0
f#6#7#5 0
f#6#6#5 0
f#6#1#5 0
f#6#7#10 0
f#6#7#9 0
f#6#7#8 0
f#6#7#1 0
f#6#10#7 0
f#6#9#7 0
f#6#8#7 0
f#6#6#7 0
f#6#1#7 0
f#6#8#10 0
f#6#8#9 0
f#6#8#1 0
f#6#10#8 0
f#6#9#8 0
f#6#6#8 0
f#6#1#8 0
f#6#9#10 57000
f#6#9#1 0
f#6#10#9 0
f#6#6#9 121000
f#6#1#9 0
f#6#10#1 0
f#6#6#10 0
f#6#1#10 0
f#6#6#1 0
f#7#2#10 0
f#7#2#9 0
f#7#2#8 0
f#7#2#6 0
f#7#2#5 0
f#7#2#4 0
f#7#2#3 0
f#7#2#1 0
f#7#10#2 0
f#7#9#2 0
f#7#8#2 0
f#7#7#2 0
f#7#6#2 0
f#7#5#2 0
f#7#4#2 0
f#7#3#2 0
f#7#1#2 0
f#7#3#10 0
f#7#3#9 0
f#7#3#8 0
f#7#3#6 0
f#7#3#5 0
f#7#3#4 0
f#7#3#1 0
f#7#10#3 0
f#7#9#3 0
f#7#8#3 0
f#7#7#3 0
f#7#6#3 0
f#7#5#3 0
f#7#4#3 0
f#7#1#3 0
f#7#4#10 0
f#7#4#9 0
f#7#4#8 0
f#7#4#6 0
f#7#4#5 0
f#7#4#1 0
f#7#10#4 0
f#7#9#4 0
f#7#8#4 0
f#7#7#4 0
f#7#6#4 0
f#7#5#4 0
f#7#1#4 0
f#7#5#10 0
f#7#5#9 0
f#7#5#8 0
f#7#5#6 0
f#7#5#1 0
f#7#10#5 0
f#7#9#5 0
f#7#8#5 0
f#7#7#5 0
f#7#6#5 0
f#7#1#5 0
f#7#6#10 0
f#7#6#9 0
f#7#6#8 0
f#7#6#1 0
f#7#10#6 0
f#7#9#6 0
f#7#8#6 0
f#7#7#6 0
f#7#1#6 0
f#7#8#10 49200
f#7#8#9 0
f#7#8#1 22000
f#7#10#8 0
f#7#9#8 0
f#7#7#8 132200
f#7#1#8 0
f#7#9#10 30800
f#7#9#1 0
f#7#10#9 0
f#7#7#9 66800
f#7#1#9 0
f#7#10#1 0
f#7#7#10 0
f#7#1#10 0
f#7#7#1 0
f#8#2#10 0
f#8#2#9 0
f#8#2#7 40000
f#8#2#6 0
f#8#2#5 0
f#8#2#4 0
f#8#2#3 20000
f#8#2#1 0
f#8#10#2 45600
f#8#9#2 0
f#8#8#2 0
f#8#7#2 0
f#8#6#2 0
f#8#5#2 0
f#8#4#2 0
f#8#3#2 0
f#8#1#2 14400
f#8#3#10 0
f#8#3#9 0
f#8#3#7 0
f#8#3#6 0
f#8#3#5 0
f#8#3#4 0
f#8#3#1 0
f#8#10#3 0
f#8#9#3 0
f#8#8#3 0
f#8#7#3 0
f#8#6#3 0
f#8#5#3 0
f#8#4#3 0
f#8#1#3 0
f#8#4#10 0
f#8#4#9 0
f#8#4#7 0
f#8#4#6 0
f#8#4#5 17000
f#8#4#1 0
f#8#10#4 36000
f#8#9#4 0
f#8#8#4 0
f#8#7#4 0
f#8#6#4 0
f#8#5#4 0
f#8#1#4 0
f#8#5#10 0
f#8#5#9 0
f#8#5#7 0
f#8#5#6 0
f#8#5#1 0
f#8#10#5 0
f#8#9#5 0
f#8#8#5 0
f#8#7#5 0
f#8#6#5 0
f#8#1#5 0
f#8#6#10 0
f#8#6#9 0
f#8#6#7 0
f#8#6#1 0
f#8#10#6 0
f#8#9#6 0
f#8#8#6 0
f#8#7#6 0
f#8#1#6 20000
f#8#7#10 0
f#8#7#9 0
f#8#7#1 0
f#8#10#7 0
f#8#9#7 0
f#8#8#7 0
f#8#1#7 0
f#8#9#10 0
f#8#9#1 0
f#8#10#9 0
f#8#8#9 0
f#8#1#9 0
f#8#10#1 0
f#8#8#10 141600
f#8#1#10 0
f#8#8#1 34400
f#9#2#10 0
f#9#2#8 0
f#9#2#7 37200
f#9#2#6 0
f#9#2#5 0
f#9#2#4 0
f#9#2#3 0
f#9#2#1 0
f#9#10#2 59200
f#9#9#2 0
f#9#8#2 0
f#9#7#2 0
f#9#6#2 0
f#9#5#2 0
f#9#4#2 0
f#9#3#2 0
f#9#1#2 0
f#9#3#10 0
f#9#3#8 49800
f#9#3#7 0
f#9#3#6 0
f#9#3#5 63200
f#9#3#4 0
f#9#3#1 0
f#9#10#3 0
f#9#9#3 151000
f#9#8#3 0
f#9#7#3 0
f#9#6#3 0
f#9#5#3 0
f#9#4#3 0
f#9#1#3 0
f#9#4#10 0
f#9#4#8 0
f#9#4#7 0
f#9#4#6 0
f#9#4#5 0
f#9#4#1 13800
f#9#10#4 13800
f#9#9#4 0
f#9#8#4 0
f#9#7#4 0
f#9#6#4 0
f#9#5#4 0
f#9#1#4 0
f#9#5#10 0
f#9#5#8 0
f#9#5#7 2800
f#9#5#6 16400
f#9#5#1 0
f#9#10#5 0
f#9#9#5 0
f#9#8#5 0
f#9#7#5 0
f#9#6#5 0
f#9#1#5 0
f#9#6#10 0
f#9#6#8 0
f#9#6#7 0
f#9#6#1 0
f#9#10#6 0
f#9#9#6 0
f#9#8#6 0
f#9#7#6 0
f#9#1#6 3600
f#9#7#10 0
f#9#7#8 0
f#9#7#1 0
f#9#10#7 0
f#9#9#7 0
f#9#8#7 0
f#9#1#7 0
f#9#8#10 0
f#9#8#1 10800
f#9#10#8 0
f#9#9#8 0
f#9#1#8 0
f#9#10#1 0
f#9#9#10 109000
f#9#1#10 0
f#9#9#1 0
f#10#2#9 0
f#10#2#8 0
f#10#2#7 0
f#10#2#6 0
f#10#2#5 0
f#10#2#4 0
f#10#2#3 64000
f#10#2#1 0
f#10#10#2 88000
f#10#9#2 0
f#10#8#2 0
f#10#7#2 0
f#10#6#2 0
f#10#5#2 0
f#10#4#2 0
f#10#3#2 0
f#10#1#2 0
f#10#3#9 0
f#10#3#8 41000
f#10#3#7 0
f#10#3#6 0
f#10#3#5 0
f#10#3#4 0
f#10#3#1 0
f#10#10#3 0
f#10#9#3 0
f#10#8#3 0
f#10#7#3 0
f#10#6#3 0
f#10#5#3 0
f#10#4#3 0
f#10#1#3 0
f#10#4#9 0
f#10#4#8 0
f#10#4#7 0
f#10#4#6 0
f#10#4#5 20000
f#10#4#1 0
f#10#10#4 59000
f#10#9#4 0
f#10#8#4 0
f#10#7#4 0
f#10#6#4 0
f#10#5#4 0
f#10#1#4 0
f#10#5#9 0
f#10#5#8 0
f#10#5#7 0
f#10#5#6 0
f#10#5#1 0
f#10#10#5 0
f#10#9#5 0
f#10#8#5 0
f#10#7#5 0
f#10#6#5 0
f#10#1#5 0
f#10#6#9 0
f#10#6#8 0
f#10#6#7 0
f#10#6#1 0
f#10#10#6 0
f#10#9#6 0
f#10#8#6 0
f#10#7#6 0
f#10#1#6 0
f#10#7#9 0
f#10#7#8 0
f#10#7#1 0
f#10#10#7 0
f#10#9#7 0
f#10#8#7 0
f#10#1#7 0
f#10#8#9 0
f#10#8#1 0
f#10#10#8 0
f#10#9#8 0
f#10#1#8 0
f#10#9#1 0
f#10#10#9 0
f#10#1#9 0
f#10#10#1 0
